NAME : N101P7.767.tour
COMMENT : Cost = 0_767
COMMENT : Found by LKH [Keld Helsgaun] Sun Sep 17 15:52:35 2017
TYPE : TOUR
DIMENSION : 101
TOUR_SECTION
1
98
90
12
33
34
52
30
28
10
89
21
97
62
76
44
41
5
9
27
32
100
92
49
35
94
29
13
87
53
51
42
96
70
25
73
85
45
64
7
95
22
71
72
46
79
60
26
65
93
3
6
66
68
2
74
57
4
91
75
14
77
40
36
84
47
43
17
19
54
59
86
61
18
16
55
69
31
50
56
83
78
82
80
63
39
8
20
23
48
38
11
67
88
15
58
37
101
99
24
81
-1
EOF
